/*********************************************
 * OPL 12.6.0.0 Data
 * Author: Adrian Rodriguez Bazaga, Pau Rodriguez Esmerats
 * Creation Date: 06/12/2017 at 23:05:00
 *********************************************/

nNurses=310;
maxConsec=2;
maxPresence=7;
maxHours=5;
minHours=1;
hours=24;
demand= [48 51 85 74 51 85 74 53 61 28 9 7 10 10 13 8 9 8 4 3 37 72 38 62  ];
